N = 10;
H = 5;
T = 2;

avail = array3d(1..N, 1..H, 1..T, [7, 3, 4, 1, 5, 10, 3, 10, 3, 6, 2, 5, 1, 7, 1, 9, 4, 7, 6, 4, 9, 2, 7, 7, 0, 3, 3, 3, 2, 8, 4, 0, 10, 9, 8, 1, 1, 1, 4, 8, 0, 1, 1, 10, 1, 4, 6, 5, 3, 0, 6, 6, 8, 1, 1, 9, 10, 4, 7, 6, 7, 2, 3, 1, 1, 1, 9, 6, 10, 5, 7, 2, 5, 0, 1, 7, 10, 3, 9, 10, 2, 6, 3, 7, 0, 4, 1, 2, 5, 2, 1, 9, 4, 10, 8, 9, 4, 7, 2, 0]);

r = array2d(1..H, 1..T, [4, 5, 4, 5, 5, 5, 5, 0, 1, 2]);
